solution status: optimal solution found
objective value:                     142006.123765305
d11(0,0)                                            1 	(obj:0)
d11(1,1)                                            1 	(obj:0)
d11(2,5)                                            1 	(obj:0)
d11(3,7)                                            1 	(obj:0)
d11(3,8)                                            1 	(obj:0)
d11(3,9)                                            1 	(obj:0)
d11(3,10)                                           1 	(obj:0)
d11(3,11)                                           1 	(obj:0)
d11(3,12)                                           1 	(obj:0)
d11(3,13)                                           1 	(obj:0)
d11(3,14)                                           1 	(obj:0)
d12(2,4)                                            1 	(obj:0)
d12(2,6)                                            1 	(obj:0)
d21(3,7)                                            1 	(obj:0)
d21(3,8)                                            1 	(obj:0)
d21(3,9)                                            1 	(obj:0)
WB(2)                                3315.65537776224 	(obj:0)
y2(2,4)                              1385.48851144895 	(obj:0)
y2(2,6)                              1385.48851144895 	(obj:0)
STE(1,1)                             8484.75010111115 	(obj:0)
STE(0,0)                                        11025 	(obj:0)
STE(1,2)                                        10143 	(obj:0)
STE(2,3)                             7602.75010111115 	(obj:0)
STE(2,4)                             8918.96418698766 	(obj:0)
STE(2,5)                                         9261 	(obj:0)
STE(2,6)                             10577.2140858765 	(obj:0)
STE(3,7)                             1649.25010111092 	(obj:0)
STE(3,8)                             3307.49999999974 	(obj:0)
STE(3,9)                             2965.46418698745 	(obj:0)
STE(3,10)                            4623.71408587625 	(obj:0)
STE(3,11)                            3307.49999999977 	(obj:0)
STE(3,12)                            4965.74989888858 	(obj:0)
STE(3,13)                            4623.71408587624 	(obj:0)
STE(3,14)                            6281.96398476509 	(obj:0)
AVE(2)                               3315.65537776224 	(obj:0)
WB(3)                                3315.65799770399 	(obj:0)
y1(1,1)                              1492.42490899996 	(obj:0)
y1(3,7)                              4564.35000000021 	(obj:0)
y1(3,8)                              3071.92509100027 	(obj:0)
y1(3,9)                              4564.35000000019 	(obj:0)
y1(3,10)                             3071.92509100027 	(obj:0)
y1(3,11)                             4564.35000000021 	(obj:0)
y1(3,12)                             3071.92509100027 	(obj:0)
y1(3,13)                             4564.35000000024 	(obj:0)
y1(3,14)                             3071.92509100027 	(obj:0)
AVE(3)                               3315.65799770399 	(obj:0)
WB(1)                                3248.33172520918 	(obj:0)
BG(1)                                4196.29249897959 	(obj:10)
BG(2)                                2673.40993877551 	(obj:10)
BG(3)                                7330.90993877636 	(obj:10)
AVE(1)                               3248.33172520918 	(obj:0)
